p cnf 91 523
-17 -18 0
-17 -19 0
-17 -20 0
-17 -21 0
-18 -19 0
-18 -20 0
-18 -21 0
-19 -20 0
-19 -21 0
-20 -21 0
17 18 19 20 21 0
1 -17 0
2 -18 0
3 -19 0
4 -20 0
5 -21 0
8 -17 0
12 -18 0
14 -19 0
15 -20 0
16 -21 0
-22 -23 0
-22 -24 0
-22 -25 0
-22 -26 0
-22 -27 0
-22 -28 0
-22 -29 0
-22 -30 0
-22 -31 0
-23 -24 0
-23 -25 0
-23 -26 0
-23 -27 0
-23 -28 0
-23 -29 0
-23 -30 0
-23 -31 0
-24 -25 0
-24 -26 0
-24 -27 0
-24 -28 0
-24 -29 0
-24 -30 0
-24 -31 0
-25 -26 0
-25 -27 0
-25 -28 0
-25 -29 0
-25 -30 0
-25 -31 0
-26 -27 0
-26 -28 0
-26 -29 0
-26 -30 0
-26 -31 0
-27 -28 0
-27 -29 0
-27 -30 0
-27 -31 0
-28 -29 0
-28 -30 0
-28 -31 0
-29 -30 0
-29 -31 0
-30 -31 0
22 23 24 25 26 27 28 29 30 31 0
-32 -33 0
-32 -34 0
-32 -35 0
-32 -36 0
-32 -37 0
-32 -38 0
-32 -39 0
-32 -40 0
-32 -41 0
-33 -34 0
-33 -35 0
-33 -36 0
-33 -37 0
-33 -38 0
-33 -39 0
-33 -40 0
-33 -41 0
-34 -35 0
-34 -36 0
-34 -37 0
-34 -38 0
-34 -39 0
-34 -40 0
-34 -41 0
-35 -36 0
-35 -37 0
-35 -38 0
-35 -39 0
-35 -40 0
-35 -41 0
-36 -37 0
-36 -38 0
-36 -39 0
-36 -40 0
-36 -41 0
-37 -38 0
-37 -39 0
-37 -40 0
-37 -41 0
-38 -39 0
-38 -40 0
-38 -41 0
-39 -40 0
-39 -41 0
-40 -41 0
32 33 34 35 36 37 38 39 40 41 0
-42 -43 0
-42 -44 0
-42 -45 0
-42 -46 0
-42 -47 0
-42 -48 0
-42 -49 0
-42 -50 0
-42 -51 0
-43 -44 0
-43 -45 0
-43 -46 0
-43 -47 0
-43 -48 0
-43 -49 0
-43 -50 0
-43 -51 0
-44 -45 0
-44 -46 0
-44 -47 0
-44 -48 0
-44 -49 0
-44 -50 0
-44 -51 0
-45 -46 0
-45 -47 0
-45 -48 0
-45 -49 0
-45 -50 0
-45 -51 0
-46 -47 0
-46 -48 0
-46 -49 0
-46 -50 0
-46 -51 0
-47 -48 0
-47 -49 0
-47 -50 0
-47 -51 0
-48 -49 0
-48 -50 0
-48 -51 0
-49 -50 0
-49 -51 0
-50 -51 0
42 43 44 45 46 47 48 49 50 51 0
-52 -53 0
-52 -54 0
-52 -55 0
-52 -56 0
-52 -57 0
-52 -58 0
-52 -59 0
-52 -60 0
-52 -61 0
-53 -54 0
-53 -55 0
-53 -56 0
-53 -57 0
-53 -58 0
-53 -59 0
-53 -60 0
-53 -61 0
-54 -55 0
-54 -56 0
-54 -57 0
-54 -58 0
-54 -59 0
-54 -60 0
-54 -61 0
-55 -56 0
-55 -57 0
-55 -58 0
-55 -59 0
-55 -60 0
-55 -61 0
-56 -57 0
-56 -58 0
-56 -59 0
-56 -60 0
-56 -61 0
-57 -58 0
-57 -59 0
-57 -60 0
-57 -61 0
-58 -59 0
-58 -60 0
-58 -61 0
-59 -60 0
-59 -61 0
-60 -61 0
52 53 54 55 56 57 58 59 60 61 0
-62 -63 0
-62 -64 0
-62 -65 0
-62 -66 0
-62 -67 0
-62 -68 0
-62 -69 0
-62 -70 0
-62 -71 0
-63 -64 0
-63 -65 0
-63 -66 0
-63 -67 0
-63 -68 0
-63 -69 0
-63 -70 0
-63 -71 0
-64 -65 0
-64 -66 0
-64 -67 0
-64 -68 0
-64 -69 0
-64 -70 0
-64 -71 0
-65 -66 0
-65 -67 0
-65 -68 0
-65 -69 0
-65 -70 0
-65 -71 0
-66 -67 0
-66 -68 0
-66 -69 0
-66 -70 0
-66 -71 0
-67 -68 0
-67 -69 0
-67 -70 0
-67 -71 0
-68 -69 0
-68 -70 0
-68 -71 0
-69 -70 0
-69 -71 0
-70 -71 0
62 63 64 65 66 67 68 69 70 71 0
-72 -73 0
-72 -74 0
-72 -75 0
-72 -76 0
-72 -77 0
-72 -78 0
-72 -79 0
-72 -80 0
-72 -81 0
-73 -74 0
-73 -75 0
-73 -76 0
-73 -77 0
-73 -78 0
-73 -79 0
-73 -80 0
-73 -81 0
-74 -75 0
-74 -76 0
-74 -77 0
-74 -78 0
-74 -79 0
-74 -80 0
-74 -81 0
-75 -76 0
-75 -77 0
-75 -78 0
-75 -79 0
-75 -80 0
-75 -81 0
-76 -77 0
-76 -78 0
-76 -79 0
-76 -80 0
-76 -81 0
-77 -78 0
-77 -79 0
-77 -80 0
-77 -81 0
-78 -79 0
-78 -80 0
-78 -81 0
-79 -80 0
-79 -81 0
-80 -81 0
72 73 74 75 76 77 78 79 80 81 0
-82 -83 0
-82 -84 0
-82 -85 0
-82 -86 0
-82 -87 0
-82 -88 0
-82 -89 0
-82 -90 0
-82 -91 0
-83 -84 0
-83 -85 0
-83 -86 0
-83 -87 0
-83 -88 0
-83 -89 0
-83 -90 0
-83 -91 0
-84 -85 0
-84 -86 0
-84 -87 0
-84 -88 0
-84 -89 0
-84 -90 0
-84 -91 0
-85 -86 0
-85 -87 0
-85 -88 0
-85 -89 0
-85 -90 0
-85 -91 0
-86 -87 0
-86 -88 0
-86 -89 0
-86 -90 0
-86 -91 0
-87 -88 0
-87 -89 0
-87 -90 0
-87 -91 0
-88 -89 0
-88 -90 0
-88 -91 0
-89 -90 0
-89 -91 0
-90 -91 0
82 83 84 85 86 87 88 89 90 91 0
-1 -22 -32 0
-1 -23 -33 0
-1 -24 -34 0
-1 -25 -35 0
-1 -26 -36 0
-1 -27 -37 0
-1 -28 -38 0
-1 -29 -39 0
-1 -30 -40 0
-1 -31 -41 0
-2 -22 -42 0
-2 -23 -43 0
-2 -24 -44 0
-2 -25 -45 0
-2 -26 -46 0
-2 -27 -47 0
-2 -28 -48 0
-2 -29 -49 0
-2 -30 -50 0
-2 -31 -51 0
-3 -22 -52 0
-3 -23 -53 0
-3 -24 -54 0
-3 -25 -55 0
-3 -26 -56 0
-3 -27 -57 0
-3 -28 -58 0
-3 -29 -59 0
-3 -30 -60 0
-3 -31 -61 0
-22 -62 0
-23 -63 0
-24 -64 0
-25 -65 0
-26 -66 0
-27 -67 0
-28 -68 0
-29 -69 0
-30 -70 0
-31 -71 0
-4 -22 -72 0
-4 -23 -73 0
-4 -24 -74 0
-4 -25 -75 0
-4 -26 -76 0
-4 -27 -77 0
-4 -28 -78 0
-4 -29 -79 0
-4 -30 -80 0
-4 -31 -81 0
-5 -22 -82 0
-5 -23 -83 0
-5 -24 -84 0
-5 -25 -85 0
-5 -26 -86 0
-5 -27 -87 0
-5 -28 -88 0
-5 -29 -89 0
-5 -30 -90 0
-5 -31 -91 0
-6 -32 -42 0
-6 -33 -43 0
-6 -34 -44 0
-6 -35 -45 0
-6 -36 -46 0
-6 -37 -47 0
-6 -38 -48 0
-6 -39 -49 0
-6 -40 -50 0
-6 -41 -51 0
-7 -32 -52 0
-7 -33 -53 0
-7 -34 -54 0
-7 -35 -55 0
-7 -36 -56 0
-7 -37 -57 0
-7 -38 -58 0
-7 -39 -59 0
-7 -40 -60 0
-7 -41 -61 0
-8 -32 -62 0
-8 -33 -63 0
-8 -34 -64 0
-8 -35 -65 0
-8 -36 -66 0
-8 -37 -67 0
-8 -38 -68 0
-8 -39 -69 0
-8 -40 -70 0
-8 -41 -71 0
-9 -32 -72 0
-9 -33 -73 0
-9 -34 -74 0
-9 -35 -75 0
-9 -36 -76 0
-9 -37 -77 0
-9 -38 -78 0
-9 -39 -79 0
-9 -40 -80 0
-9 -41 -81 0
-10 -32 -82 0
-10 -33 -83 0
-10 -34 -84 0
-10 -35 -85 0
-10 -36 -86 0
-10 -37 -87 0
-10 -38 -88 0
-10 -39 -89 0
-10 -40 -90 0
-10 -41 -91 0
-11 -42 -52 0
-11 -43 -53 0
-11 -44 -54 0
-11 -45 -55 0
-11 -46 -56 0
-11 -47 -57 0
-11 -48 -58 0
-11 -49 -59 0
-11 -50 -60 0
-11 -51 -61 0
-12 -42 -62 0
-12 -43 -63 0
-12 -44 -64 0
-12 -45 -65 0
-12 -46 -66 0
-12 -47 -67 0
-12 -48 -68 0
-12 -49 -69 0
-12 -50 -70 0
-12 -51 -71 0
-13 -42 -72 0
-13 -43 -73 0
-13 -44 -74 0
-13 -45 -75 0
-13 -46 -76 0
-13 -47 -77 0
-13 -48 -78 0
-13 -49 -79 0
-13 -50 -80 0
-13 -51 -81 0
-42 -82 0
-43 -83 0
-44 -84 0
-45 -85 0
-46 -86 0
-47 -87 0
-48 -88 0
-49 -89 0
-50 -90 0
-51 -91 0
-14 -52 -62 0
-14 -53 -63 0
-14 -54 -64 0
-14 -55 -65 0
-14 -56 -66 0
-14 -57 -67 0
-14 -58 -68 0
-14 -59 -69 0
-14 -60 -70 0
-14 -61 -71 0
-15 -62 -72 0
-15 -63 -73 0
-15 -64 -74 0
-15 -65 -75 0
-15 -66 -76 0
-15 -67 -77 0
-15 -68 -78 0
-15 -69 -79 0
-15 -70 -80 0
-15 -71 -81 0
-16 -62 -82 0
-16 -63 -83 0
-16 -64 -84 0
-16 -65 -85 0
-16 -66 -86 0
-16 -67 -87 0
-16 -68 -88 0
-16 -69 -89 0
-16 -70 -90 0
-16 -71 -91 0
